50
5469 1242 2801 4308 169 4982 9521 4286 8341 9601 205 131 4361 9600 4545 7977 6716 452 4659 6438 1598 1323 6675 3004 6907 2773 761 3746 7873 3490 5460 7740 2771 8669 411 4502 2417 1709 8999 1661 7802 4711 9453 8858 164 9516 5590 7268 1055 7188 
5912 2172 2992 3387 766 5314 8780 4904 7413 9775 751 1071 3697 9038 4898 7943 7553 232 4979 5865 2462 1057 6506 3025 7767 3454 1101 3384 8128 4252 5392 7037 3350 9646 420 3607 2064 1093 9293 1668 8494 4103 9732 9027 151 9507 5013 6312 838 6942 
118761
